webassembly/ejemplos_dzn/folder3_json_29.dzn
TERM = { '.', 'in_1', 'local_0', 'in_2', 'in_3', 'in_0'};
null = '.';
s = 3;
n = 9;
ndeps = 0;
max_registers_sz = 4;
NR = 1;
registers = [|'local_0', 'in_3'|];
dependencies = [| |];
GET_ENUM = { GET1, GET2, GET3, GET4, GET5};
SET_ENUM = { SET1, SET2, SET3, SET4, SET5};
TEE_ENUM = { TEE1, TEE2, TEE3, TEE4, TEE5};
N = 1;
OP = { 'i32.store_0' };
in_ops = [2 ];
out_ops = [0 ];
in1 = ['in_0' ];
in2 = ['in_1' ];
in3 = ['.' ];
out1 = ['.' ];
out2 = ['.' ];
out3 = ['.' ];
comm = [false ];
gas = [1 ];
sz = [1 ];
stor = [true ];
lb = [ 1 ];
ub = [ 3 ];
startstack = [ 'in_0', 'in_1', 'in_2', 'in_3', null, null, null, null, null ];
endstack = [ null, null, null, null, null, null, null, null, null ];
