webassembly/ejemplos_results/3/folder3_json_29.txt
value = 2;
fgas = [1, 1, 0];
fsize = [1, 1, 1];
states = 
[| in_0, in_1, in_2, in_3, '.', '.', '.', '.', '.'
 | in_3,  '.',  '.',  '.', '.', '.', '.', '.', '.'
 |  '.',  '.',  '.',  '.', '.', '.', '.', '.', '.'
 |  '.',  '.',  '.',  '.', '.', '.', '.', '.', '.'
 |];
register_states = 
[| local_0, '.', '.', '.', '.'
 | local_0, '.', '.', '.', '.'
 |    in_3, '.', '.', '.', '.'
 |    in_3, '.', '.', '.', '.'
 |];
program = [O('i32.store_0'), S(SET1), NOP];
% time elapsed: 0.04 s
----------
==========
% time elapsed: 0.04 s
% [value > 1]
